c nIsolatedPIs 200
c maxPI 56
p cnf 184 385
c gate 57 -24 -52 0
-24 -57 0
-52 -57 0
24 52 57 0
c gate 58 24 52 0
24 -58 0
52 -58 0
-24 -52 58 0
c gate 59 23 51 0
23 -59 0
51 -59 0
-23 -51 59 0
c gate 60 -58 -59 0
-58 -60 0
-59 -60 0
58 59 60 0
c gate 61 22 50 0
22 -61 0
50 -61 0
-22 -50 61 0
c gate 62 21 49 0
21 -62 0
49 -62 0
-21 -49 62 0
c gate 63 -61 -62 0
-61 -63 0
-62 -63 0
61 62 63 0
c gate 64 -22 -50 0
-22 -64 0
-50 -64 0
22 50 64 0
c gate 65 -23 -51 0
-23 -65 0
-51 -65 0
23 51 65 0
c gate 66 -64 -65 0
-64 -66 0
-65 -66 0
64 65 66 0
c gate 67 -63 66 0
-63 -67 0
66 -67 0
63 -66 67 0
c gate 68 60 -67 0
60 -68 0
-67 -68 0
-60 67 68 0
c gate 69 -57 -68 0
-57 -69 0
-68 -69 0
57 68 69 0
c gate 70 25 53 0
25 -70 0
53 -70 0
-25 -53 70 0
c gate 71 26 54 0
26 -71 0
54 -71 0
-26 -54 71 0
c gate 72 -70 -71 0
-70 -72 0
-71 -72 0
70 71 72 0
c gate 73 -25 -53 0
-25 -73 0
-53 -73 0
25 53 73 0
c gate 74 -26 -54 0
-26 -74 0
-54 -74 0
26 54 74 0
c gate 75 -73 -74 0
-73 -75 0
-74 -75 0
73 74 75 0
c gate 76 72 75 0
72 -76 0
75 -76 0
-72 -75 76 0
c gate 77 69 76 0
69 -77 0
76 -77 0
-69 -76 77 0
c gate 78 27 55 0
27 -78 0
55 -78 0
-27 -55 78 0
c gate 79 -72 -74 0
-72 -79 0
-74 -79 0
72 74 79 0
c gate 80 -78 -79 0
-78 -80 0
-79 -80 0
78 79 80 0
c gate 81 -77 80 0
-77 -81 0
80 -81 0
77 -80 81 0
c gate 82 2 30 0
2 -82 0
30 -82 0
-2 -30 82 0
c gate 83 1 29 0
1 -83 0
29 -83 0
-1 -29 83 0
c gate 84 -82 -83 0
-82 -84 0
-83 -84 0
82 83 84 0
c gate 85 -3 -31 0
-3 -85 0
-31 -85 0
3 31 85 0
c gate 86 -2 -30 0
-2 -86 0
-30 -86 0
2 30 86 0
c gate 87 -85 -86 0
-85 -87 0
-86 -87 0
85 86 87 0
c gate 88 -84 87 0
-84 -88 0
87 -88 0
84 -87 88 0
c gate 89 4 32 0
4 -89 0
32 -89 0
-4 -32 89 0
c gate 90 3 31 0
3 -90 0
31 -90 0
-3 -31 90 0
c gate 91 -89 -90 0
-89 -91 0
-90 -91 0
89 90 91 0
c gate 92 -88 91 0
-88 -92 0
91 -92 0
88 -91 92 0
c gate 93 -4 -32 0
-4 -93 0
-32 -93 0
4 32 93 0
c gate 94 -5 -33 0
-5 -94 0
-33 -94 0
5 33 94 0
c gate 95 -93 -94 0
-93 -95 0
-94 -95 0
93 94 95 0
c gate 96 -92 95 0
-92 -96 0
95 -96 0
92 -95 96 0
c gate 97 6 34 0
6 -97 0
34 -97 0
-6 -34 97 0
c gate 98 5 33 0
5 -98 0
33 -98 0
-5 -33 98 0
c gate 99 -97 -98 0
-97 -99 0
-98 -99 0
97 98 99 0
c gate 100 -96 99 0
-96 -100 0
99 -100 0
96 -99 100 0
c gate 101 -7 -35 0
-7 -101 0
-35 -101 0
7 35 101 0
c gate 102 -6 -34 0
-6 -102 0
-34 -102 0
6 34 102 0
c gate 103 -101 -102 0
-101 -103 0
-102 -103 0
101 102 103 0
c gate 104 -100 103 0
-100 -104 0
103 -104 0
100 -103 104 0
c gate 105 8 36 0
8 -105 0
36 -105 0
-8 -36 105 0
c gate 106 7 35 0
7 -106 0
35 -106 0
-7 -35 106 0
c gate 107 -105 -106 0
-105 -107 0
-106 -107 0
105 106 107 0
c gate 108 -104 107 0
-104 -108 0
107 -108 0
104 -107 108 0
c gate 109 -9 -37 0
-9 -109 0
-37 -109 0
9 37 109 0
c gate 110 -8 -36 0
-8 -110 0
-36 -110 0
8 36 110 0
c gate 111 -109 -110 0
-109 -111 0
-110 -111 0
109 110 111 0
c gate 112 -108 111 0
-108 -112 0
111 -112 0
108 -111 112 0
c gate 113 10 38 0
10 -113 0
38 -113 0
-10 -38 113 0
c gate 114 9 37 0
9 -114 0
37 -114 0
-9 -37 114 0
c gate 115 -113 -114 0
-113 -115 0
-114 -115 0
113 114 115 0
c gate 116 -112 115 0
-112 -116 0
115 -116 0
112 -115 116 0
c gate 117 -10 -38 0
-10 -117 0
-38 -117 0
10 38 117 0
c gate 118 -12 -40 0
-12 -118 0
-40 -118 0
12 40 118 0
c gate 119 -11 -39 0
-11 -119 0
-39 -119 0
11 39 119 0
c gate 120 -118 -119 0
-118 -120 0
-119 -120 0
118 119 120 0
c gate 121 -117 120 0
-117 -121 0
120 -121 0
117 -120 121 0
c gate 122 -116 121 0
-116 -122 0
121 -122 0
116 -121 122 0
c gate 123 12 40 0
12 -123 0
40 -123 0
-12 -40 123 0
c gate 124 11 39 0
11 -124 0
39 -124 0
-11 -39 124 0
c gate 125 -118 124 0
-118 -125 0
124 -125 0
118 -124 125 0
c gate 126 -123 -125 0
-123 -126 0
-125 -126 0
123 125 126 0
c gate 127 -122 126 0
-122 -127 0
126 -127 0
122 -126 127 0
c gate 128 -14 -42 0
-14 -128 0
-42 -128 0
14 42 128 0
c gate 129 -15 -43 0
-15 -129 0
-43 -129 0
15 43 129 0
c gate 130 -128 -129 0
-128 -130 0
-129 -130 0
128 129 130 0
c gate 131 14 42 0
14 -131 0
42 -131 0
-14 -42 131 0
c gate 132 13 41 0
13 -132 0
41 -132 0
-13 -41 132 0
c gate 133 -131 -132 0
-131 -133 0
-132 -133 0
131 132 133 0
c gate 134 -13 -41 0
-13 -134 0
-41 -134 0
13 41 134 0
c gate 135 133 -134 0
133 -135 0
-134 -135 0
-133 134 135 0
c gate 136 130 135 0
130 -136 0
135 -136 0
-130 -135 136 0
c gate 137 -127 136 0
-127 -137 0
136 -137 0
127 -136 137 0
c gate 138 130 -133 0
130 -138 0
-133 -138 0
-130 133 138 0
c gate 139 15 43 0
15 -139 0
43 -139 0
-15 -43 139 0
c gate 140 16 44 0
16 -140 0
44 -140 0
-16 -44 140 0
c gate 141 -139 -140 0
-139 -141 0
-140 -141 0
139 140 141 0
c gate 142 -138 141 0
-138 -142 0
141 -142 0
138 -141 142 0
c gate 143 -137 142 0
-137 -143 0
142 -143 0
137 -142 143 0
c gate 144 20 48 0
20 -144 0
48 -144 0
-20 -48 144 0
c gate 145 -20 -48 0
-20 -145 0
-48 -145 0
20 48 145 0
c gate 146 19 47 0
19 -146 0
47 -146 0
-19 -47 146 0
c gate 147 -145 146 0
-145 -147 0
146 -147 0
145 -146 147 0
c gate 148 -144 -147 0
-144 -148 0
-147 -148 0
144 147 148 0
c gate 149 -19 -47 0
-19 -149 0
-47 -149 0
19 47 149 0
c gate 150 -145 -149 0
-145 -150 0
-149 -150 0
145 149 150 0
c gate 151 148 150 0
148 -151 0
150 -151 0
-148 -150 151 0
c gate 152 -21 -49 0
-21 -152 0
-49 -152 0
21 49 152 0
c gate 153 -57 -152 0
-57 -153 0
-152 -153 0
57 152 153 0
c gate 154 60 153 0
60 -154 0
153 -154 0
-60 -153 154 0
c gate 155 63 66 0
63 -155 0
66 -155 0
-63 -66 155 0
c gate 156 154 155 0
154 -156 0
155 -156 0
-154 -155 156 0
c gate 157 18 46 0
18 -157 0
46 -157 0
-18 -46 157 0
c gate 158 17 45 0
17 -158 0
45 -158 0
-17 -45 158 0
c gate 159 -157 -158 0
-157 -159 0
-158 -159 0
157 158 159 0
c gate 160 -17 -45 0
-17 -160 0
-45 -160 0
17 45 160 0
c gate 161 -18 -46 0
-18 -161 0
-46 -161 0
18 46 161 0
c gate 162 -16 -44 0
-16 -162 0
-44 -162 0
16 44 162 0
c gate 163 -161 -162 0
-161 -163 0
-162 -163 0
161 162 163 0
c gate 164 -160 163 0
-160 -164 0
163 -164 0
160 -163 164 0
c gate 165 159 164 0
159 -165 0
164 -165 0
-159 -164 165 0
c gate 166 156 165 0
156 -166 0
165 -166 0
-156 -165 166 0
c gate 167 151 166 0
151 -167 0
166 -167 0
-151 -166 167 0
c gate 168 -143 167 0
-143 -168 0
167 -168 0
143 -167 168 0
c gate 169 -159 -161 0
-159 -169 0
-161 -169 0
159 161 169 0
c gate 170 151 169 0
151 -170 0
169 -170 0
-151 -169 170 0
c gate 171 148 -170 0
148 -171 0
-170 -171 0
-148 170 171 0
c gate 172 156 -171 0
156 -172 0
-171 -172 0
-156 171 172 0
c gate 173 -69 -172 0
-69 -173 0
-172 -173 0
69 172 173 0
c gate 174 -168 173 0
-168 -174 0
173 -174 0
168 -173 174 0
c gate 175 28 56 0
28 -175 0
56 -175 0
-28 -56 175 0
c gate 176 -27 -55 0
-27 -176 0
-55 -176 0
27 55 176 0
c gate 177 -80 -176 0
-80 -177 0
-176 -177 0
80 176 177 0
c gate 178 -175 -177 0
-175 -178 0
-177 -178 0
175 177 178 0
c gate 179 -28 -56 0
-28 -179 0
-56 -179 0
28 56 179 0
c gate 180 -176 -179 0
-176 -180 0
-179 -180 0
176 179 180 0
c gate 181 76 180 0
76 -181 0
180 -181 0
-76 -180 181 0
c gate 182 178 181 0
178 -182 0
181 -182 0
-178 -181 182 0
c gate 183 -174 182 0
-174 -183 0
182 -183 0
174 -182 183 0
c gate 184 -81 183 0
-81 -184 0
183 -184 0
81 -183 184 0
c PO
184 0
